p cnf 10 75
-8 -10 2 4 5 7 8 9 10 0
-5 -10 -7 -6 -2 -8 -3 2 3 5 6 7 8 10 0
-3 -9 -8 8 9 10 3 0
-8 -1 -10 -2 -4 -6 1 2 3 4 5 6 7 8 9 10 0
-10 -9 -1 1 2 3 5 8 9 10 0
 9 0
-7 -8 -10 -9 -3 -6 -1 -5 -2 1 2 3 5 6 7 8 9 10 0
-10 1 10 5 0
-7 1 7 0
-2 1 2 4 5 6 7 8 9 10 0
-3 -6 -9 -2 -5 -10 -8 2 3 5 6 8 9 10 0
 2 3 4 5 6 7 8 10 0
-2 -3 -4 1 2 3 4 0
-5 -10 -3 10 3 5 0
-1 -9 -10 -3 1 2 3 4 5 8 9 10 0
 1 3 4 5 6 7 8 10 0
-7 -8 -3 -1 -5 1 2 3 5 7 8 0
-4 -3 -10 -8 -7 -5 -1 1 2 3 4 5 7 8 9 10 0
-9 9 6 0
-8 -10 8 10 6 0
-5 -8 8 1 5 0
-5 -7 -10 -3 10 3 5 7 0
 2 0
-8 -3 -5 -7 -9 3 5 6 7 8 9 0
-4 4 0
-5 -6 -7 1 4 5 6 7 9 0
-10 -8 -3 -2 -1 -5 1 2 3 4 5 6 8 9 10 0
-4 -10 -7 -5 2 4 5 7 9 10 0
-7 -4 -9 -2 1 2 3 4 5 6 7 8 9 10 0
 1 2 4 5 7 8 9 10 0
-8 8 1 3 6 0
 5 0
-2 1 2 3 4 5 7 8 9 10 0
-10 -3 -9 -6 2 3 5 6 7 9 10 0
-1 -6 8 1 6 0
-7 -6 -10 10 6 7 0
-4 -10 1 2 3 4 5 7 8 9 10 0
-6 -9 -4 -1 -8 1 4 6 8 9 10 0
-1 -10 1 2 3 4 5 6 7 8 9 10 0
-10 10 0
-9 8 9 10 0
-9 -1 -7 -4 -6 1 4 6 7 9 10 0
 9 10 0
-7 7 0
-3 -6 -9 1 3 5 6 8 9 0
-5 -7 -8 -3 -2 -6 2 3 5 6 7 8 0
-1 -3 -8 -9 1 3 4 6 8 9 0
-3 -8 -10 1 2 3 4 5 6 7 8 9 10 0
 5 0
 1 2 3 4 5 6 7 9 10 0
-7 -10 -8 -2 -9 -5 2 4 5 7 8 9 10 0
-10 -9 -4 -6 -8 -7 -5 -3 1 2 3 4 5 6 7 8 9 10 0
-10 -2 -9 -7 -4 1 2 4 6 7 8 9 10 0
-7 -2 -5 -8 -6 2 5 6 7 8 0
-8 -9 8 9 0
-9 -5 -3 -1 1 3 5 9 0
-10 -6 -1 -8 8 1 10 6 0
-8 -2 -6 2 3 4 6 7 8 10 0
-7 3 4 5 7 8 9 0
-8 -2 8 10 2 4 0
-8 -4 -1 -7 -9 1 4 7 8 9 10 0
-3 -8 -9 -7 -5 -2 1 2 3 4 5 6 7 8 9 10 0
-6 -4 -9 -7 9 4 6 7 0
-4 -6 -5 -1 -7 -3 -10 -9 -2 1 2 3 4 5 6 7 9 10 0
-4 -3 -6 -9 -2 1 2 3 4 6 9 10 0
-1 -5 -4 1 4 5 0
-7 -6 -4 -1 1 4 5 6 7 8 9 10 0
-1 -4 -3 -6 -8 -10 -7 1 3 4 6 7 8 10 0
